(set-info :smt-lib-version 2.6)
(set-logic QF_NIA)
(set-info :source |
Generated by: Cristina Borralleras, Daniel Larraz, Albert Oliveras, Enric Rodriguez-Carbonell, Albert Rubio
Generated on: 2017-04-27
Generator: VeryMax
Application: Termination proving
Target solver: barcelogic
|)
(set-info :license "https://creativecommons.org/licenses/by/4.0/")
(set-info :category "industrial")
(set-info :status sat)
(declare-fun Nl20copied2^01 () Int)
(declare-fun Nl20var_e_EFEGp_0___rho_1_^01 () Int)
(declare-fun Nl20var_e_EFEGp_0_x^01 () Int)
(declare-fun Nl20copied2^02 () Int)
(declare-fun Nl20var_e_EFEGp_0___rho_1_^02 () Int)
(declare-fun Nl20var_e_EFEGp_0_x^02 () Int)
(declare-fun Nl20copied2^03 () Int)
(declare-fun Nl20var_e_EFEGp_0___rho_1_^03 () Int)
(declare-fun Nl20var_e_EFEGp_0_x^03 () Int)
(declare-fun lam0n0 () Int)
(declare-fun lam0n1 () Int)
(declare-fun lam0n2 () Int)
(declare-fun lam0n3 () Int)
(declare-fun lam0n5 () Int)
(declare-fun lam0n6 () Int)
(declare-fun lam0n7 () Int)
(declare-fun lam0n8 () Int)
(declare-fun lam0n4 () Int)
(declare-fun UndefCntr0_CT () Int)
(declare-fun Nl20CT1 () Int)
(declare-fun Nl20CT2 () Int)
(declare-fun Nl20CT3 () Int)
(declare-fun UndefCntr0_copied2^0 () Int)
(declare-fun UndefCntr0_var_e_EFEGp_0___rho_1_^0 () Int)
(declare-fun UndefCntr0_var_e_EFEGp_0_x^0 () Int)
(declare-fun UndefCntr0_undef2529 () Int)
(declare-fun UndefCntr0_undef6067 () Int)
(declare-fun UndefCntr0_undef6076 () Int)
(declare-fun lam1n0 () Int)
(declare-fun lam1n1 () Int)
(declare-fun lam1n2 () Int)
(declare-fun lam1n3 () Int)
(declare-fun lam1n5 () Int)
(declare-fun lam1n6 () Int)
(declare-fun lam1n7 () Int)
(declare-fun lam1n8 () Int)
(declare-fun lam1n4 () Int)
(declare-fun lam2n0 () Int)
(declare-fun lam2n1 () Int)
(declare-fun lam2n2 () Int)
(declare-fun lam2n3 () Int)
(declare-fun lam2n5 () Int)
(declare-fun lam2n6 () Int)
(declare-fun lam2n7 () Int)
(declare-fun lam2n8 () Int)
(declare-fun lam2n4 () Int)
(declare-fun lam3n0 () Int)
(declare-fun lam3n1 () Int)
(declare-fun lam3n2 () Int)
(declare-fun lam3n3 () Int)
(declare-fun lam3n5 () Int)
(declare-fun lam3n6 () Int)
(declare-fun lam3n7 () Int)
(declare-fun lam3n8 () Int)
(declare-fun lam3n4 () Int)
(declare-fun lam4n0 () Int)
(declare-fun lam4n1 () Int)
(declare-fun lam4n2 () Int)
(declare-fun lam4n3 () Int)
(declare-fun lam4n5 () Int)
(declare-fun lam4n6 () Int)
(declare-fun lam4n7 () Int)
(declare-fun lam4n8 () Int)
(declare-fun lam4n4 () Int)
(declare-fun UndefCntr1_CT () Int)
(declare-fun UndefCntr1_copied2^0 () Int)
(declare-fun UndefCntr1_var_e_EFEGp_0___rho_1_^0 () Int)
(declare-fun UndefCntr1_var_e_EFEGp_0_x^0 () Int)
(declare-fun UndefCntr1_undef2529 () Int)
(declare-fun UndefCntr1_undef6067 () Int)
(declare-fun UndefCntr1_undef6076 () Int)
(declare-fun lam5n0 () Int)
(declare-fun lam5n1 () Int)
(declare-fun lam5n2 () Int)
(declare-fun lam5n3 () Int)
(declare-fun lam5n5 () Int)
(declare-fun lam5n6 () Int)
(declare-fun lam5n7 () Int)
(declare-fun lam5n8 () Int)
(declare-fun lam5n4 () Int)
(declare-fun lam6n0 () Int)
(declare-fun lam6n1 () Int)
(declare-fun lam6n2 () Int)
(declare-fun lam6n3 () Int)
(declare-fun lam6n5 () Int)
(declare-fun lam6n6 () Int)
(declare-fun lam6n7 () Int)
(declare-fun lam6n8 () Int)
(declare-fun lam6n4 () Int)
(declare-fun lam7n0 () Int)
(declare-fun lam7n1 () Int)
(declare-fun lam7n2 () Int)
(declare-fun lam7n3 () Int)
(declare-fun lam7n5 () Int)
(declare-fun lam7n6 () Int)
(declare-fun lam7n7 () Int)
(declare-fun lam7n8 () Int)
(declare-fun lam7n4 () Int)
(declare-fun lam8n0 () Int)
(declare-fun lam8n1 () Int)
(declare-fun lam8n2 () Int)
(declare-fun lam8n3 () Int)
(declare-fun lam8n4 () Int)
(declare-fun lam8n5 () Int)
(declare-fun lam8n6 () Int)
(declare-fun lam8n7 () Int)
(declare-fun lam8n8 () Int)
(declare-fun lam9n0 () Int)
(declare-fun lam9n1 () Int)
(declare-fun lam9n2 () Int)
(declare-fun lam9n3 () Int)
(declare-fun lam9n4 () Int)
(declare-fun lam9n5 () Int)
(declare-fun lam9n6 () Int)
(declare-fun lam9n7 () Int)
(declare-fun lam9n8 () Int)
(declare-fun lam10n0 () Int)
(declare-fun lam10n1 () Int)
(declare-fun lam10n2 () Int)
(declare-fun lam10n3 () Int)
(declare-fun lam10n4 () Int)
(declare-fun lam10n5 () Int)
(declare-fun lam10n6 () Int)
(declare-fun lam10n7 () Int)
(declare-fun lam10n8 () Int)
(declare-fun ___rho_1_^0 () Int)
(declare-fun var_e_EFEGp_0___rho_1_^0 () Int)
(declare-fun ___rho_2_^0 () Int)
(declare-fun var_e_EFEGp_0___rho_2_^0 () Int)
(declare-fun copied2^0 () Int)
(declare-fun copied3^0 () Int)
(declare-fun var_e_EFEGp_0_p^0 () Int)
(declare-fun undef2013 () Int)
(declare-fun var_e_EFEGp_0_pc^0 () Int)
(declare-fun undef2016 () Int)
(declare-fun var_e_EFEGp_0_x^0 () Int)
(declare-fun x^0 () Int)
(declare-fun FV_copied2^0_2 () Int)
(declare-fun FV_var_e_EFEGp_0___rho_1_^0_2 () Int)
(declare-fun FV_var_e_EFEGp_0_x^0_2 () Int)
(declare-fun FV_undef2529_0 () Int)
(declare-fun FV_undef6067_0 () Int)
(declare-fun FV_undef6076_0 () Int)
(declare-fun FV_copied2^0_0 () Int)
(declare-fun FV_var_e_EFEGp_0___rho_1_^0_0 () Int)
(declare-fun FV_var_e_EFEGp_0_x^0_0 () Int)
(declare-fun FV_undef2529_1 () Int)
(declare-fun FV_undef6067_1 () Int)
(declare-fun FV_undef6076_1 () Int)
(declare-fun FV_copied2^0_1 () Int)
(declare-fun FV_var_e_EFEGp_0___rho_1_^0_1 () Int)
(declare-fun FV_var_e_EFEGp_0_x^0_1 () Int)
(declare-fun lam11n0 () Int)
(declare-fun lam11n1 () Int)
(declare-fun lam11n2 () Int)
(declare-fun lam11n3 () Int)
(declare-fun lam11n4 () Int)
(declare-fun FV_copied2^0_3 () Int)
(declare-fun FV_var_e_EFEGp_0___rho_1_^0_3 () Int)
(declare-fun FV_var_e_EFEGp_0_x^0_3 () Int)
(declare-fun FV_undef2529_3 () Int)
(declare-fun FV_undef6067_3 () Int)
(declare-fun FV_undef6076_3 () Int)
(assert ( and ( <= ( - 6 ) Nl20copied2^01 ) ( <= Nl20copied2^01 6 ) ( <= ( - 6 ) Nl20var_e_EFEGp_0___rho_1_^01 ) ( <= Nl20var_e_EFEGp_0___rho_1_^01 6 ) ( <= ( - 6 ) Nl20var_e_EFEGp_0_x^01 ) ( <= Nl20var_e_EFEGp_0_x^01 6 ) ( <= ( - 6 ) Nl20copied2^02 ) ( <= Nl20copied2^02 6 ) ( <= ( - 6 ) Nl20var_e_EFEGp_0___rho_1_^02 ) ( <= Nl20var_e_EFEGp_0___rho_1_^02 6 ) ( <= ( - 6 ) Nl20var_e_EFEGp_0_x^02 ) ( <= Nl20var_e_EFEGp_0_x^02 6 ) ( <= ( - 6 ) Nl20copied2^03 ) ( <= Nl20copied2^03 6 ) ( <= ( - 6 ) Nl20var_e_EFEGp_0___rho_1_^03 ) ( <= Nl20var_e_EFEGp_0___rho_1_^03 6 ) ( <= ( - 6 ) Nl20var_e_EFEGp_0_x^03 ) ( <= Nl20var_e_EFEGp_0_x^03 6 ) ))
(assert ( or ( and ( >= lam0n0 0 ) ( >= lam0n1 0 ) ( >= lam0n2 0 ) ( >= lam0n3 0 ) ( >= lam0n5 0 ) ( >= lam0n6 0 ) ( >= lam0n7 0 ) ( >= lam0n8 0 ) ( > ( + ( * ( - 3 ) lam0n4 ) ( * UndefCntr0_CT lam0n5 ) ( * Nl20CT1 lam0n6 ) ( * Nl20CT2 lam0n7 ) ( * Nl20CT3 lam0n8 ) ( - 1 ) ) 0 ) ( = ( + ( * 1 lam0n0 ) ( * UndefCntr0_copied2^0 lam0n5 ) ( * Nl20copied2^01 lam0n6 ) ( * Nl20copied2^02 lam0n7 ) ( * Nl20copied2^03 lam0n8 ) ) 0 ) ( = ( + ( * UndefCntr0_var_e_EFEGp_0___rho_1_^0 lam0n5 ) ( * Nl20var_e_EFEGp_0___rho_1_^01 lam0n6 ) ( * Nl20var_e_EFEGp_0___rho_1_^02 lam0n7 ) ( * Nl20var_e_EFEGp_0___rho_1_^03 lam0n8 ) ) 0 ) ( = ( + ( * 1 lam0n1 ) ( * UndefCntr0_var_e_EFEGp_0_x^0 lam0n5 ) ( * Nl20var_e_EFEGp_0_x^01 lam0n6 ) ( * Nl20var_e_EFEGp_0_x^02 lam0n7 ) ( * Nl20var_e_EFEGp_0_x^03 lam0n8 ) ) 0 ) ( = ( + ( * 1 lam0n2 ) ( * UndefCntr0_undef2529 lam0n5 ) ) 0 ) ( = ( + ( * 1 lam0n3 ) ( * UndefCntr0_undef6067 lam0n5 ) ) 0 ) ( = ( + ( * 1 lam0n4 ) ( * UndefCntr0_undef6076 lam0n5 ) ) 0 ) ) ( and ( >= lam1n0 0 ) ( >= lam1n1 0 ) ( >= lam1n2 0 ) ( >= lam1n3 0 ) ( >= lam1n5 0 ) ( >= lam1n6 0 ) ( >= lam1n7 0 ) ( >= lam1n8 0 ) ( > ( + ( * ( - 3 ) lam1n4 ) ( * UndefCntr0_CT lam1n5 ) ( * Nl20CT1 lam1n6 ) ( * Nl20CT2 lam1n7 ) ( * Nl20CT3 lam1n8 ) ( - 1 ( + ( + Nl20CT1 ( * Nl20var_e_EFEGp_0___rho_1_^01 0 ) ) ( * Nl20var_e_EFEGp_0_x^01 ( - 1 ) ) ) ) ) 0 ) ( = ( + ( * 1 lam1n0 ) ( * UndefCntr0_copied2^0 lam1n5 ) ( * Nl20copied2^01 lam1n6 ) ( * Nl20copied2^02 lam1n7 ) ( * Nl20copied2^03 lam1n8 ) ( - ( + 0 Nl20copied2^01 ) ) ) 0 ) ( = ( + ( * UndefCntr0_var_e_EFEGp_0___rho_1_^0 lam1n5 ) ( * Nl20var_e_EFEGp_0___rho_1_^01 lam1n6 ) ( * Nl20var_e_EFEGp_0___rho_1_^02 lam1n7 ) ( * Nl20var_e_EFEGp_0___rho_1_^03 lam1n8 ) ) 0 ) ( = ( + ( * 1 lam1n1 ) ( * UndefCntr0_var_e_EFEGp_0_x^0 lam1n5 ) ( * Nl20var_e_EFEGp_0_x^01 lam1n6 ) ( * Nl20var_e_EFEGp_0_x^02 lam1n7 ) ( * Nl20var_e_EFEGp_0_x^03 lam1n8 ) ( - ( + 0 ( * Nl20var_e_EFEGp_0_x^01 1 ) ) ) ) 0 ) ( = ( + ( * 1 lam1n2 ) ( * UndefCntr0_undef2529 lam1n5 ) ) 0 ) ( = ( + ( * 1 lam1n3 ) ( * UndefCntr0_undef6067 lam1n5 ) ( - ( + 0 ( * Nl20var_e_EFEGp_0___rho_1_^01 1 ) ) ) ) 0 ) ( = ( + ( * 1 lam1n4 ) ( * UndefCntr0_undef6076 lam1n5 ) ) 0 ) ) ))
(assert ( or ( and ( >= lam0n0 0 ) ( >= lam0n1 0 ) ( >= lam0n2 0 ) ( >= lam0n3 0 ) ( >= lam0n5 0 ) ( >= lam0n6 0 ) ( >= lam0n7 0 ) ( >= lam0n8 0 ) ( > ( + ( * ( - 3 ) lam0n4 ) ( * UndefCntr0_CT lam0n5 ) ( * Nl20CT1 lam0n6 ) ( * Nl20CT2 lam0n7 ) ( * Nl20CT3 lam0n8 ) ( - 1 ) ) 0 ) ( = ( + ( * 1 lam0n0 ) ( * UndefCntr0_copied2^0 lam0n5 ) ( * Nl20copied2^01 lam0n6 ) ( * Nl20copied2^02 lam0n7 ) ( * Nl20copied2^03 lam0n8 ) ) 0 ) ( = ( + ( * UndefCntr0_var_e_EFEGp_0___rho_1_^0 lam0n5 ) ( * Nl20var_e_EFEGp_0___rho_1_^01 lam0n6 ) ( * Nl20var_e_EFEGp_0___rho_1_^02 lam0n7 ) ( * Nl20var_e_EFEGp_0___rho_1_^03 lam0n8 ) ) 0 ) ( = ( + ( * 1 lam0n1 ) ( * UndefCntr0_var_e_EFEGp_0_x^0 lam0n5 ) ( * Nl20var_e_EFEGp_0_x^01 lam0n6 ) ( * Nl20var_e_EFEGp_0_x^02 lam0n7 ) ( * Nl20var_e_EFEGp_0_x^03 lam0n8 ) ) 0 ) ( = ( + ( * 1 lam0n2 ) ( * UndefCntr0_undef2529 lam0n5 ) ) 0 ) ( = ( + ( * 1 lam0n3 ) ( * UndefCntr0_undef6067 lam0n5 ) ) 0 ) ( = ( + ( * 1 lam0n4 ) ( * UndefCntr0_undef6076 lam0n5 ) ) 0 ) ) ( and ( >= lam2n0 0 ) ( >= lam2n1 0 ) ( >= lam2n2 0 ) ( >= lam2n3 0 ) ( >= lam2n5 0 ) ( >= lam2n6 0 ) ( >= lam2n7 0 ) ( >= lam2n8 0 ) ( > ( + ( * ( - 3 ) lam2n4 ) ( * UndefCntr0_CT lam2n5 ) ( * Nl20CT1 lam2n6 ) ( * Nl20CT2 lam2n7 ) ( * Nl20CT3 lam2n8 ) ( - 1 ( + ( + Nl20CT2 ( * Nl20var_e_EFEGp_0___rho_1_^02 0 ) ) ( * Nl20var_e_EFEGp_0_x^02 ( - 1 ) ) ) ) ) 0 ) ( = ( + ( * 1 lam2n0 ) ( * UndefCntr0_copied2^0 lam2n5 ) ( * Nl20copied2^01 lam2n6 ) ( * Nl20copied2^02 lam2n7 ) ( * Nl20copied2^03 lam2n8 ) ( - ( + 0 Nl20copied2^02 ) ) ) 0 ) ( = ( + ( * UndefCntr0_var_e_EFEGp_0___rho_1_^0 lam2n5 ) ( * Nl20var_e_EFEGp_0___rho_1_^01 lam2n6 ) ( * Nl20var_e_EFEGp_0___rho_1_^02 lam2n7 ) ( * Nl20var_e_EFEGp_0___rho_1_^03 lam2n8 ) ) 0 ) ( = ( + ( * 1 lam2n1 ) ( * UndefCntr0_var_e_EFEGp_0_x^0 lam2n5 ) ( * Nl20var_e_EFEGp_0_x^01 lam2n6 ) ( * Nl20var_e_EFEGp_0_x^02 lam2n7 ) ( * Nl20var_e_EFEGp_0_x^03 lam2n8 ) ( - ( + 0 ( * Nl20var_e_EFEGp_0_x^02 1 ) ) ) ) 0 ) ( = ( + ( * 1 lam2n2 ) ( * UndefCntr0_undef2529 lam2n5 ) ) 0 ) ( = ( + ( * 1 lam2n3 ) ( * UndefCntr0_undef6067 lam2n5 ) ( - ( + 0 ( * Nl20var_e_EFEGp_0___rho_1_^02 1 ) ) ) ) 0 ) ( = ( + ( * 1 lam2n4 ) ( * UndefCntr0_undef6076 lam2n5 ) ) 0 ) ) ))
(assert ( or ( and ( >= lam0n0 0 ) ( >= lam0n1 0 ) ( >= lam0n2 0 ) ( >= lam0n3 0 ) ( >= lam0n5 0 ) ( >= lam0n6 0 ) ( >= lam0n7 0 ) ( >= lam0n8 0 ) ( > ( + ( * ( - 3 ) lam0n4 ) ( * UndefCntr0_CT lam0n5 ) ( * Nl20CT1 lam0n6 ) ( * Nl20CT2 lam0n7 ) ( * Nl20CT3 lam0n8 ) ( - 1 ) ) 0 ) ( = ( + ( * 1 lam0n0 ) ( * UndefCntr0_copied2^0 lam0n5 ) ( * Nl20copied2^01 lam0n6 ) ( * Nl20copied2^02 lam0n7 ) ( * Nl20copied2^03 lam0n8 ) ) 0 ) ( = ( + ( * UndefCntr0_var_e_EFEGp_0___rho_1_^0 lam0n5 ) ( * Nl20var_e_EFEGp_0___rho_1_^01 lam0n6 ) ( * Nl20var_e_EFEGp_0___rho_1_^02 lam0n7 ) ( * Nl20var_e_EFEGp_0___rho_1_^03 lam0n8 ) ) 0 ) ( = ( + ( * 1 lam0n1 ) ( * UndefCntr0_var_e_EFEGp_0_x^0 lam0n5 ) ( * Nl20var_e_EFEGp_0_x^01 lam0n6 ) ( * Nl20var_e_EFEGp_0_x^02 lam0n7 ) ( * Nl20var_e_EFEGp_0_x^03 lam0n8 ) ) 0 ) ( = ( + ( * 1 lam0n2 ) ( * UndefCntr0_undef2529 lam0n5 ) ) 0 ) ( = ( + ( * 1 lam0n3 ) ( * UndefCntr0_undef6067 lam0n5 ) ) 0 ) ( = ( + ( * 1 lam0n4 ) ( * UndefCntr0_undef6076 lam0n5 ) ) 0 ) ) ( and ( >= lam3n0 0 ) ( >= lam3n1 0 ) ( >= lam3n2 0 ) ( >= lam3n3 0 ) ( >= lam3n5 0 ) ( >= lam3n6 0 ) ( >= lam3n7 0 ) ( >= lam3n8 0 ) ( > ( + ( * ( - 3 ) lam3n4 ) ( * UndefCntr0_CT lam3n5 ) ( * Nl20CT1 lam3n6 ) ( * Nl20CT2 lam3n7 ) ( * Nl20CT3 lam3n8 ) ( - 1 ( + ( + Nl20CT3 ( * Nl20var_e_EFEGp_0___rho_1_^03 0 ) ) ( * Nl20var_e_EFEGp_0_x^03 ( - 1 ) ) ) ) ) 0 ) ( = ( + ( * 1 lam3n0 ) ( * UndefCntr0_copied2^0 lam3n5 ) ( * Nl20copied2^01 lam3n6 ) ( * Nl20copied2^02 lam3n7 ) ( * Nl20copied2^03 lam3n8 ) ( - ( + 0 Nl20copied2^03 ) ) ) 0 ) ( = ( + ( * UndefCntr0_var_e_EFEGp_0___rho_1_^0 lam3n5 ) ( * Nl20var_e_EFEGp_0___rho_1_^01 lam3n6 ) ( * Nl20var_e_EFEGp_0___rho_1_^02 lam3n7 ) ( * Nl20var_e_EFEGp_0___rho_1_^03 lam3n8 ) ) 0 ) ( = ( + ( * 1 lam3n1 ) ( * UndefCntr0_var_e_EFEGp_0_x^0 lam3n5 ) ( * Nl20var_e_EFEGp_0_x^01 lam3n6 ) ( * Nl20var_e_EFEGp_0_x^02 lam3n7 ) ( * Nl20var_e_EFEGp_0_x^03 lam3n8 ) ( - ( + 0 ( * Nl20var_e_EFEGp_0_x^03 1 ) ) ) ) 0 ) ( = ( + ( * 1 lam3n2 ) ( * UndefCntr0_undef2529 lam3n5 ) ) 0 ) ( = ( + ( * 1 lam3n3 ) ( * UndefCntr0_undef6067 lam3n5 ) ( - ( + 0 ( * Nl20var_e_EFEGp_0___rho_1_^03 1 ) ) ) ) 0 ) ( = ( + ( * 1 lam3n4 ) ( * UndefCntr0_undef6076 lam3n5 ) ) 0 ) ) ))
(assert ( or ( and ( >= lam4n0 0 ) ( >= lam4n1 0 ) ( >= lam4n2 0 ) ( >= lam4n3 0 ) ( >= lam4n5 0 ) ( >= lam4n6 0 ) ( >= lam4n7 0 ) ( >= lam4n8 0 ) ( > ( + ( * 1 lam4n3 ) ( * ( - 3 ) lam4n4 ) ( * UndefCntr1_CT lam4n5 ) ( * Nl20CT1 lam4n6 ) ( * Nl20CT2 lam4n7 ) ( * Nl20CT3 lam4n8 ) ( - 1 ) ) 0 ) ( = ( + ( * 1 lam4n0 ) ( * UndefCntr1_copied2^0 lam4n5 ) ( * Nl20copied2^01 lam4n6 ) ( * Nl20copied2^02 lam4n7 ) ( * Nl20copied2^03 lam4n8 ) ) 0 ) ( = ( + ( * UndefCntr1_var_e_EFEGp_0___rho_1_^0 lam4n5 ) ( * Nl20var_e_EFEGp_0___rho_1_^01 lam4n6 ) ( * Nl20var_e_EFEGp_0___rho_1_^02 lam4n7 ) ( * Nl20var_e_EFEGp_0___rho_1_^03 lam4n8 ) ) 0 ) ( = ( + ( * 1 lam4n1 ) ( * UndefCntr1_var_e_EFEGp_0_x^0 lam4n5 ) ( * Nl20var_e_EFEGp_0_x^01 lam4n6 ) ( * Nl20var_e_EFEGp_0_x^02 lam4n7 ) ( * Nl20var_e_EFEGp_0_x^03 lam4n8 ) ) 0 ) ( = ( + ( * 1 lam4n2 ) ( * UndefCntr1_undef2529 lam4n5 ) ) 0 ) ( = ( + ( * ( - 1 ) lam4n3 ) ( * UndefCntr1_undef6067 lam4n5 ) ) 0 ) ( = ( + ( * 1 lam4n4 ) ( * UndefCntr1_undef6076 lam4n5 ) ) 0 ) ) ( and ( >= lam5n0 0 ) ( >= lam5n1 0 ) ( >= lam5n2 0 ) ( >= lam5n3 0 ) ( >= lam5n5 0 ) ( >= lam5n6 0 ) ( >= lam5n7 0 ) ( >= lam5n8 0 ) ( > ( + ( * 1 lam5n3 ) ( * ( - 3 ) lam5n4 ) ( * UndefCntr1_CT lam5n5 ) ( * Nl20CT1 lam5n6 ) ( * Nl20CT2 lam5n7 ) ( * Nl20CT3 lam5n8 ) ( - 1 ( + ( + Nl20CT1 ( * Nl20var_e_EFEGp_0___rho_1_^01 0 ) ) ( * Nl20var_e_EFEGp_0_x^01 1 ) ) ) ) 0 ) ( = ( + ( * 1 lam5n0 ) ( * UndefCntr1_copied2^0 lam5n5 ) ( * Nl20copied2^01 lam5n6 ) ( * Nl20copied2^02 lam5n7 ) ( * Nl20copied2^03 lam5n8 ) ( - ( + 0 Nl20copied2^01 ) ) ) 0 ) ( = ( + ( * UndefCntr1_var_e_EFEGp_0___rho_1_^0 lam5n5 ) ( * Nl20var_e_EFEGp_0___rho_1_^01 lam5n6 ) ( * Nl20var_e_EFEGp_0___rho_1_^02 lam5n7 ) ( * Nl20var_e_EFEGp_0___rho_1_^03 lam5n8 ) ) 0 ) ( = ( + ( * 1 lam5n1 ) ( * UndefCntr1_var_e_EFEGp_0_x^0 lam5n5 ) ( * Nl20var_e_EFEGp_0_x^01 lam5n6 ) ( * Nl20var_e_EFEGp_0_x^02 lam5n7 ) ( * Nl20var_e_EFEGp_0_x^03 lam5n8 ) ( - ( + 0 ( * Nl20var_e_EFEGp_0_x^01 1 ) ) ) ) 0 ) ( = ( + ( * 1 lam5n2 ) ( * UndefCntr1_undef2529 lam5n5 ) ) 0 ) ( = ( + ( * ( - 1 ) lam5n3 ) ( * UndefCntr1_undef6067 lam5n5 ) ( - ( + 0 ( * Nl20var_e_EFEGp_0___rho_1_^01 1 ) ) ) ) 0 ) ( = ( + ( * 1 lam5n4 ) ( * UndefCntr1_undef6076 lam5n5 ) ) 0 ) ) ))
(assert ( or ( and ( >= lam4n0 0 ) ( >= lam4n1 0 ) ( >= lam4n2 0 ) ( >= lam4n3 0 ) ( >= lam4n5 0 ) ( >= lam4n6 0 ) ( >= lam4n7 0 ) ( >= lam4n8 0 ) ( > ( + ( * 1 lam4n3 ) ( * ( - 3 ) lam4n4 ) ( * UndefCntr1_CT lam4n5 ) ( * Nl20CT1 lam4n6 ) ( * Nl20CT2 lam4n7 ) ( * Nl20CT3 lam4n8 ) ( - 1 ) ) 0 ) ( = ( + ( * 1 lam4n0 ) ( * UndefCntr1_copied2^0 lam4n5 ) ( * Nl20copied2^01 lam4n6 ) ( * Nl20copied2^02 lam4n7 ) ( * Nl20copied2^03 lam4n8 ) ) 0 ) ( = ( + ( * UndefCntr1_var_e_EFEGp_0___rho_1_^0 lam4n5 ) ( * Nl20var_e_EFEGp_0___rho_1_^01 lam4n6 ) ( * Nl20var_e_EFEGp_0___rho_1_^02 lam4n7 ) ( * Nl20var_e_EFEGp_0___rho_1_^03 lam4n8 ) ) 0 ) ( = ( + ( * 1 lam4n1 ) ( * UndefCntr1_var_e_EFEGp_0_x^0 lam4n5 ) ( * Nl20var_e_EFEGp_0_x^01 lam4n6 ) ( * Nl20var_e_EFEGp_0_x^02 lam4n7 ) ( * Nl20var_e_EFEGp_0_x^03 lam4n8 ) ) 0 ) ( = ( + ( * 1 lam4n2 ) ( * UndefCntr1_undef2529 lam4n5 ) ) 0 ) ( = ( + ( * ( - 1 ) lam4n3 ) ( * UndefCntr1_undef6067 lam4n5 ) ) 0 ) ( = ( + ( * 1 lam4n4 ) ( * UndefCntr1_undef6076 lam4n5 ) ) 0 ) ) ( and ( >= lam6n0 0 ) ( >= lam6n1 0 ) ( >= lam6n2 0 ) ( >= lam6n3 0 ) ( >= lam6n5 0 ) ( >= lam6n6 0 ) ( >= lam6n7 0 ) ( >= lam6n8 0 ) ( > ( + ( * 1 lam6n3 ) ( * ( - 3 ) lam6n4 ) ( * UndefCntr1_CT lam6n5 ) ( * Nl20CT1 lam6n6 ) ( * Nl20CT2 lam6n7 ) ( * Nl20CT3 lam6n8 ) ( - 1 ( + ( + Nl20CT2 ( * Nl20var_e_EFEGp_0___rho_1_^02 0 ) ) ( * Nl20var_e_EFEGp_0_x^02 1 ) ) ) ) 0 ) ( = ( + ( * 1 lam6n0 ) ( * UndefCntr1_copied2^0 lam6n5 ) ( * Nl20copied2^01 lam6n6 ) ( * Nl20copied2^02 lam6n7 ) ( * Nl20copied2^03 lam6n8 ) ( - ( + 0 Nl20copied2^02 ) ) ) 0 ) ( = ( + ( * UndefCntr1_var_e_EFEGp_0___rho_1_^0 lam6n5 ) ( * Nl20var_e_EFEGp_0___rho_1_^01 lam6n6 ) ( * Nl20var_e_EFEGp_0___rho_1_^02 lam6n7 ) ( * Nl20var_e_EFEGp_0___rho_1_^03 lam6n8 ) ) 0 ) ( = ( + ( * 1 lam6n1 ) ( * UndefCntr1_var_e_EFEGp_0_x^0 lam6n5 ) ( * Nl20var_e_EFEGp_0_x^01 lam6n6 ) ( * Nl20var_e_EFEGp_0_x^02 lam6n7 ) ( * Nl20var_e_EFEGp_0_x^03 lam6n8 ) ( - ( + 0 ( * Nl20var_e_EFEGp_0_x^02 1 ) ) ) ) 0 ) ( = ( + ( * 1 lam6n2 ) ( * UndefCntr1_undef2529 lam6n5 ) ) 0 ) ( = ( + ( * ( - 1 ) lam6n3 ) ( * UndefCntr1_undef6067 lam6n5 ) ( - ( + 0 ( * Nl20var_e_EFEGp_0___rho_1_^02 1 ) ) ) ) 0 ) ( = ( + ( * 1 lam6n4 ) ( * UndefCntr1_undef6076 lam6n5 ) ) 0 ) ) ))
(assert ( or ( and ( >= lam4n0 0 ) ( >= lam4n1 0 ) ( >= lam4n2 0 ) ( >= lam4n3 0 ) ( >= lam4n5 0 ) ( >= lam4n6 0 ) ( >= lam4n7 0 ) ( >= lam4n8 0 ) ( > ( + ( * 1 lam4n3 ) ( * ( - 3 ) lam4n4 ) ( * UndefCntr1_CT lam4n5 ) ( * Nl20CT1 lam4n6 ) ( * Nl20CT2 lam4n7 ) ( * Nl20CT3 lam4n8 ) ( - 1 ) ) 0 ) ( = ( + ( * 1 lam4n0 ) ( * UndefCntr1_copied2^0 lam4n5 ) ( * Nl20copied2^01 lam4n6 ) ( * Nl20copied2^02 lam4n7 ) ( * Nl20copied2^03 lam4n8 ) ) 0 ) ( = ( + ( * UndefCntr1_var_e_EFEGp_0___rho_1_^0 lam4n5 ) ( * Nl20var_e_EFEGp_0___rho_1_^01 lam4n6 ) ( * Nl20var_e_EFEGp_0___rho_1_^02 lam4n7 ) ( * Nl20var_e_EFEGp_0___rho_1_^03 lam4n8 ) ) 0 ) ( = ( + ( * 1 lam4n1 ) ( * UndefCntr1_var_e_EFEGp_0_x^0 lam4n5 ) ( * Nl20var_e_EFEGp_0_x^01 lam4n6 ) ( * Nl20var_e_EFEGp_0_x^02 lam4n7 ) ( * Nl20var_e_EFEGp_0_x^03 lam4n8 ) ) 0 ) ( = ( + ( * 1 lam4n2 ) ( * UndefCntr1_undef2529 lam4n5 ) ) 0 ) ( = ( + ( * ( - 1 ) lam4n3 ) ( * UndefCntr1_undef6067 lam4n5 ) ) 0 ) ( = ( + ( * 1 lam4n4 ) ( * UndefCntr1_undef6076 lam4n5 ) ) 0 ) ) ( and ( >= lam7n0 0 ) ( >= lam7n1 0 ) ( >= lam7n2 0 ) ( >= lam7n3 0 ) ( >= lam7n5 0 ) ( >= lam7n6 0 ) ( >= lam7n7 0 ) ( >= lam7n8 0 ) ( > ( + ( * 1 lam7n3 ) ( * ( - 3 ) lam7n4 ) ( * UndefCntr1_CT lam7n5 ) ( * Nl20CT1 lam7n6 ) ( * Nl20CT2 lam7n7 ) ( * Nl20CT3 lam7n8 ) ( - 1 ( + ( + Nl20CT3 ( * Nl20var_e_EFEGp_0___rho_1_^03 0 ) ) ( * Nl20var_e_EFEGp_0_x^03 1 ) ) ) ) 0 ) ( = ( + ( * 1 lam7n0 ) ( * UndefCntr1_copied2^0 lam7n5 ) ( * Nl20copied2^01 lam7n6 ) ( * Nl20copied2^02 lam7n7 ) ( * Nl20copied2^03 lam7n8 ) ( - ( + 0 Nl20copied2^03 ) ) ) 0 ) ( = ( + ( * UndefCntr1_var_e_EFEGp_0___rho_1_^0 lam7n5 ) ( * Nl20var_e_EFEGp_0___rho_1_^01 lam7n6 ) ( * Nl20var_e_EFEGp_0___rho_1_^02 lam7n7 ) ( * Nl20var_e_EFEGp_0___rho_1_^03 lam7n8 ) ) 0 ) ( = ( + ( * 1 lam7n1 ) ( * UndefCntr1_var_e_EFEGp_0_x^0 lam7n5 ) ( * Nl20var_e_EFEGp_0_x^01 lam7n6 ) ( * Nl20var_e_EFEGp_0_x^02 lam7n7 ) ( * Nl20var_e_EFEGp_0_x^03 lam7n8 ) ( - ( + 0 ( * Nl20var_e_EFEGp_0_x^03 1 ) ) ) ) 0 ) ( = ( + ( * 1 lam7n2 ) ( * UndefCntr1_undef2529 lam7n5 ) ) 0 ) ( = ( + ( * ( - 1 ) lam7n3 ) ( * UndefCntr1_undef6067 lam7n5 ) ( - ( + 0 ( * Nl20var_e_EFEGp_0___rho_1_^03 1 ) ) ) ) 0 ) ( = ( + ( * 1 lam7n4 ) ( * UndefCntr1_undef6076 lam7n5 ) ) 0 ) ) ))
(assert ( and ( <= ( + Nl20CT1 ( * Nl20copied2^01 FV_copied2^0_2 ) ( * Nl20var_e_EFEGp_0___rho_1_^01 FV_var_e_EFEGp_0___rho_1_^0_2 ) ( * Nl20var_e_EFEGp_0_x^01 FV_var_e_EFEGp_0_x^0_2 ) ) 0 ) ( <= ( + Nl20CT2 ( * Nl20copied2^02 FV_copied2^0_2 ) ( * Nl20var_e_EFEGp_0___rho_1_^02 FV_var_e_EFEGp_0___rho_1_^0_2 ) ( * Nl20var_e_EFEGp_0_x^02 FV_var_e_EFEGp_0_x^0_2 ) ) 0 ) ( <= ( + Nl20CT3 ( * Nl20copied2^03 FV_copied2^0_2 ) ( * Nl20var_e_EFEGp_0___rho_1_^03 FV_var_e_EFEGp_0___rho_1_^0_2 ) ( * Nl20var_e_EFEGp_0_x^03 FV_var_e_EFEGp_0_x^0_2 ) ) 0 ) ( <= FV_copied2^0_2 0 ) ))
(assert ( or ( not ( = UndefCntr0_copied2^0 0 ) ) ( not ( = UndefCntr0_var_e_EFEGp_0___rho_1_^0 0 ) ) ( not ( = UndefCntr0_var_e_EFEGp_0_x^0 0 ) ) ( not ( = UndefCntr0_undef2529 0 ) ) ( not ( = UndefCntr0_undef6067 0 ) ) ( not ( = UndefCntr0_undef6076 0 ) ) ( = UndefCntr0_CT 0 ) ))
(assert ( or ( and ( = UndefCntr0_copied2^0 0 ) ( = UndefCntr0_var_e_EFEGp_0___rho_1_^0 0 ) ( = UndefCntr0_var_e_EFEGp_0_x^0 0 ) ) ( or ( not ( = UndefCntr0_undef2529 0 ) ) ( not ( = UndefCntr0_undef6067 0 ) ) ( not ( = UndefCntr0_undef6076 0 ) ) ) ))
(assert ( or ( not ( = UndefCntr1_copied2^0 0 ) ) ( not ( = UndefCntr1_var_e_EFEGp_0___rho_1_^0 0 ) ) ( not ( = UndefCntr1_var_e_EFEGp_0_x^0 0 ) ) ( not ( = UndefCntr1_undef2529 0 ) ) ( not ( = UndefCntr1_undef6067 0 ) ) ( not ( = UndefCntr1_undef6076 0 ) ) ( = UndefCntr1_CT 0 ) ))
(assert ( or ( and ( = UndefCntr1_copied2^0 0 ) ( = UndefCntr1_var_e_EFEGp_0___rho_1_^0 0 ) ( = UndefCntr1_var_e_EFEGp_0_x^0 0 ) ) ( or ( not ( = UndefCntr1_undef2529 0 ) ) ( not ( = UndefCntr1_undef6067 0 ) ) ( not ( = UndefCntr1_undef6076 0 ) ) ) ))
(assert ( or ( = UndefCntr0_undef2529 0 ) ( and ( and ( = UndefCntr0_copied2^0 0 ) ( = UndefCntr0_var_e_EFEGp_0___rho_1_^0 0 ) ( = UndefCntr0_var_e_EFEGp_0_x^0 0 ) ( = UndefCntr0_undef6067 0 ) ( = UndefCntr0_undef6076 0 ) ) ( or ( and ( <= FV_undef2529_0 0 ) ( <= ( + UndefCntr0_CT ( * UndefCntr0_undef2529 FV_undef2529_0 ) ( * UndefCntr0_undef6067 FV_undef6067_0 ) ( * UndefCntr0_undef6076 FV_undef6076_0 ) ( * UndefCntr0_copied2^0 FV_copied2^0_0 ) ( * UndefCntr0_var_e_EFEGp_0___rho_1_^0 FV_var_e_EFEGp_0___rho_1_^0_0 ) ( * UndefCntr0_var_e_EFEGp_0_x^0 FV_var_e_EFEGp_0_x^0_0 ) ) 0 ) ) ( and ( and ( = UndefCntr0_undef2529 UndefCntr1_undef2529 ) ( = UndefCntr0_CT UndefCntr1_CT ) ) ( or ( and ( <= FV_undef2529_0 0 ) ( <= ( + UndefCntr0_CT ( * UndefCntr0_undef2529 FV_undef2529_0 ) ( * UndefCntr0_undef6067 FV_undef6067_0 ) ( * UndefCntr0_undef6076 FV_undef6076_0 ) ( * UndefCntr0_copied2^0 FV_copied2^0_0 ) ( * UndefCntr0_var_e_EFEGp_0___rho_1_^0 FV_var_e_EFEGp_0___rho_1_^0_0 ) ( * UndefCntr0_var_e_EFEGp_0_x^0 FV_var_e_EFEGp_0_x^0_0 ) ) 0 ) ) ( and ( <= FV_undef2529_1 0 ) ( <= ( + UndefCntr1_CT ( * UndefCntr1_undef6067 FV_undef6067_1 ) ( * UndefCntr1_undef2529 FV_undef2529_1 ) ( * UndefCntr1_undef6076 FV_undef6076_1 ) ( * UndefCntr1_copied2^0 FV_copied2^0_1 ) ( * UndefCntr1_var_e_EFEGp_0___rho_1_^0 FV_var_e_EFEGp_0___rho_1_^0_1 ) ( * UndefCntr1_var_e_EFEGp_0_x^0 FV_var_e_EFEGp_0_x^0_1 ) ) 0 ) ) ) ) ) ) ))
(assert ( or ( = UndefCntr0_undef6067 0 ) ( and ( and ( = UndefCntr0_copied2^0 0 ) ( = UndefCntr0_var_e_EFEGp_0___rho_1_^0 0 ) ( = UndefCntr0_var_e_EFEGp_0_x^0 0 ) ( = UndefCntr0_undef2529 0 ) ( = UndefCntr0_undef6076 0 ) ) ( or ( and ( <= FV_undef6067_0 0 ) ( <= ( + UndefCntr0_CT ( * UndefCntr0_undef2529 FV_undef2529_0 ) ( * UndefCntr0_undef6067 FV_undef6067_0 ) ( * UndefCntr0_undef6076 FV_undef6076_0 ) ( * UndefCntr0_copied2^0 FV_copied2^0_0 ) ( * UndefCntr0_var_e_EFEGp_0___rho_1_^0 FV_var_e_EFEGp_0___rho_1_^0_0 ) ( * UndefCntr0_var_e_EFEGp_0_x^0 FV_var_e_EFEGp_0_x^0_0 ) ) 0 ) ) ( and ( and ( = UndefCntr0_undef6067 UndefCntr1_undef6067 ) ( = UndefCntr0_CT UndefCntr1_CT ) ) ( or ( and ( <= FV_undef6067_0 0 ) ( <= ( + UndefCntr0_CT ( * UndefCntr0_undef2529 FV_undef2529_0 ) ( * UndefCntr0_undef6067 FV_undef6067_0 ) ( * UndefCntr0_undef6076 FV_undef6076_0 ) ( * UndefCntr0_copied2^0 FV_copied2^0_0 ) ( * UndefCntr0_var_e_EFEGp_0___rho_1_^0 FV_var_e_EFEGp_0___rho_1_^0_0 ) ( * UndefCntr0_var_e_EFEGp_0_x^0 FV_var_e_EFEGp_0_x^0_0 ) ) 0 ) ) ( and ( <= ( + 1 ( * ( - 1 ) FV_undef6067_1 ) ) 0 ) ( <= ( + UndefCntr1_CT ( * UndefCntr1_undef6067 FV_undef6067_1 ) ( * UndefCntr1_undef2529 FV_undef2529_1 ) ( * UndefCntr1_undef6076 FV_undef6076_1 ) ( * UndefCntr1_copied2^0 FV_copied2^0_1 ) ( * UndefCntr1_var_e_EFEGp_0___rho_1_^0 FV_var_e_EFEGp_0___rho_1_^0_1 ) ( * UndefCntr1_var_e_EFEGp_0_x^0 FV_var_e_EFEGp_0_x^0_1 ) ) 0 ) ) ) ) ) ) ))
(assert ( or ( = UndefCntr0_undef6076 0 ) ( and ( and ( = UndefCntr0_copied2^0 0 ) ( = UndefCntr0_var_e_EFEGp_0___rho_1_^0 0 ) ( = UndefCntr0_var_e_EFEGp_0_x^0 0 ) ( = UndefCntr0_undef2529 0 ) ( = UndefCntr0_undef6067 0 ) ) ( or ( and ( = ( + ( - 3 ) FV_undef6076_0 ) 0 ) ( <= ( + UndefCntr0_CT ( * UndefCntr0_undef2529 FV_undef2529_0 ) ( * UndefCntr0_undef6067 FV_undef6067_0 ) ( * UndefCntr0_undef6076 FV_undef6076_0 ) ( * UndefCntr0_copied2^0 FV_copied2^0_0 ) ( * UndefCntr0_var_e_EFEGp_0___rho_1_^0 FV_var_e_EFEGp_0___rho_1_^0_0 ) ( * UndefCntr0_var_e_EFEGp_0_x^0 FV_var_e_EFEGp_0_x^0_0 ) ) 0 ) ) ( and ( and ( = UndefCntr0_undef6076 UndefCntr1_undef6076 ) ( = UndefCntr0_CT UndefCntr1_CT ) ) ( or ( and ( = ( + ( - 3 ) FV_undef6076_0 ) 0 ) ( <= ( + UndefCntr0_CT ( * UndefCntr0_undef2529 FV_undef2529_0 ) ( * UndefCntr0_undef6067 FV_undef6067_0 ) ( * UndefCntr0_undef6076 FV_undef6076_0 ) ( * UndefCntr0_copied2^0 FV_copied2^0_0 ) ( * UndefCntr0_var_e_EFEGp_0___rho_1_^0 FV_var_e_EFEGp_0___rho_1_^0_0 ) ( * UndefCntr0_var_e_EFEGp_0_x^0 FV_var_e_EFEGp_0_x^0_0 ) ) 0 ) ) ( and ( = ( + ( - 3 ) FV_undef6076_1 ) 0 ) ( <= ( + UndefCntr1_CT ( * UndefCntr1_undef6067 FV_undef6067_1 ) ( * UndefCntr1_undef2529 FV_undef2529_1 ) ( * UndefCntr1_undef6076 FV_undef6076_1 ) ( * UndefCntr1_copied2^0 FV_copied2^0_1 ) ( * UndefCntr1_var_e_EFEGp_0___rho_1_^0 FV_var_e_EFEGp_0___rho_1_^0_1 ) ( * UndefCntr1_var_e_EFEGp_0_x^0 FV_var_e_EFEGp_0_x^0_1 ) ) 0 ) ) ) ) ) ) ))
(assert ( or ( = UndefCntr1_undef2529 0 ) ( and ( and ( = UndefCntr1_copied2^0 0 ) ( = UndefCntr1_var_e_EFEGp_0___rho_1_^0 0 ) ( = UndefCntr1_var_e_EFEGp_0_x^0 0 ) ( = UndefCntr1_undef6067 0 ) ( = UndefCntr1_undef6076 0 ) ) ( or ( and ( <= FV_undef2529_1 0 ) ( <= ( + UndefCntr1_CT ( * UndefCntr1_undef6067 FV_undef6067_1 ) ( * UndefCntr1_undef2529 FV_undef2529_1 ) ( * UndefCntr1_undef6076 FV_undef6076_1 ) ( * UndefCntr1_copied2^0 FV_copied2^0_1 ) ( * UndefCntr1_var_e_EFEGp_0___rho_1_^0 FV_var_e_EFEGp_0___rho_1_^0_1 ) ( * UndefCntr1_var_e_EFEGp_0_x^0 FV_var_e_EFEGp_0_x^0_1 ) ) 0 ) ) ( and ( and ( = UndefCntr0_undef2529 UndefCntr1_undef2529 ) ( = UndefCntr0_CT UndefCntr1_CT ) ) ( or ( and ( <= FV_undef2529_0 0 ) ( <= ( + UndefCntr0_CT ( * UndefCntr0_undef2529 FV_undef2529_0 ) ( * UndefCntr0_undef6067 FV_undef6067_0 ) ( * UndefCntr0_undef6076 FV_undef6076_0 ) ( * UndefCntr0_copied2^0 FV_copied2^0_0 ) ( * UndefCntr0_var_e_EFEGp_0___rho_1_^0 FV_var_e_EFEGp_0___rho_1_^0_0 ) ( * UndefCntr0_var_e_EFEGp_0_x^0 FV_var_e_EFEGp_0_x^0_0 ) ) 0 ) ) ( and ( <= FV_undef2529_1 0 ) ( <= ( + UndefCntr1_CT ( * UndefCntr1_undef6067 FV_undef6067_1 ) ( * UndefCntr1_undef2529 FV_undef2529_1 ) ( * UndefCntr1_undef6076 FV_undef6076_1 ) ( * UndefCntr1_copied2^0 FV_copied2^0_1 ) ( * UndefCntr1_var_e_EFEGp_0___rho_1_^0 FV_var_e_EFEGp_0___rho_1_^0_1 ) ( * UndefCntr1_var_e_EFEGp_0_x^0 FV_var_e_EFEGp_0_x^0_1 ) ) 0 ) ) ) ) ) ) ))
(assert ( or ( = UndefCntr1_undef6067 0 ) ( and ( and ( = UndefCntr1_copied2^0 0 ) ( = UndefCntr1_var_e_EFEGp_0___rho_1_^0 0 ) ( = UndefCntr1_var_e_EFEGp_0_x^0 0 ) ( = UndefCntr1_undef2529 0 ) ( = UndefCntr1_undef6076 0 ) ) ( or ( and ( <= ( + 1 ( * ( - 1 ) FV_undef6067_1 ) ) 0 ) ( <= ( + UndefCntr1_CT ( * UndefCntr1_undef6067 FV_undef6067_1 ) ( * UndefCntr1_undef2529 FV_undef2529_1 ) ( * UndefCntr1_undef6076 FV_undef6076_1 ) ( * UndefCntr1_copied2^0 FV_copied2^0_1 ) ( * UndefCntr1_var_e_EFEGp_0___rho_1_^0 FV_var_e_EFEGp_0___rho_1_^0_1 ) ( * UndefCntr1_var_e_EFEGp_0_x^0 FV_var_e_EFEGp_0_x^0_1 ) ) 0 ) ) ( and ( and ( = UndefCntr0_undef6067 UndefCntr1_undef6067 ) ( = UndefCntr0_CT UndefCntr1_CT ) ) ( or ( and ( <= FV_undef6067_0 0 ) ( <= ( + UndefCntr0_CT ( * UndefCntr0_undef2529 FV_undef2529_0 ) ( * UndefCntr0_undef6067 FV_undef6067_0 ) ( * UndefCntr0_undef6076 FV_undef6076_0 ) ( * UndefCntr0_copied2^0 FV_copied2^0_0 ) ( * UndefCntr0_var_e_EFEGp_0___rho_1_^0 FV_var_e_EFEGp_0___rho_1_^0_0 ) ( * UndefCntr0_var_e_EFEGp_0_x^0 FV_var_e_EFEGp_0_x^0_0 ) ) 0 ) ) ( and ( <= ( + 1 ( * ( - 1 ) FV_undef6067_1 ) ) 0 ) ( <= ( + UndefCntr1_CT ( * UndefCntr1_undef6067 FV_undef6067_1 ) ( * UndefCntr1_undef2529 FV_undef2529_1 ) ( * UndefCntr1_undef6076 FV_undef6076_1 ) ( * UndefCntr1_copied2^0 FV_copied2^0_1 ) ( * UndefCntr1_var_e_EFEGp_0___rho_1_^0 FV_var_e_EFEGp_0___rho_1_^0_1 ) ( * UndefCntr1_var_e_EFEGp_0_x^0 FV_var_e_EFEGp_0_x^0_1 ) ) 0 ) ) ) ) ) ) ))
(assert ( or ( = UndefCntr1_undef6076 0 ) ( and ( and ( = UndefCntr1_copied2^0 0 ) ( = UndefCntr1_var_e_EFEGp_0___rho_1_^0 0 ) ( = UndefCntr1_var_e_EFEGp_0_x^0 0 ) ( = UndefCntr1_undef2529 0 ) ( = UndefCntr1_undef6067 0 ) ) ( or ( and ( = ( + ( - 3 ) FV_undef6076_1 ) 0 ) ( <= ( + UndefCntr1_CT ( * UndefCntr1_undef6067 FV_undef6067_1 ) ( * UndefCntr1_undef2529 FV_undef2529_1 ) ( * UndefCntr1_undef6076 FV_undef6076_1 ) ( * UndefCntr1_copied2^0 FV_copied2^0_1 ) ( * UndefCntr1_var_e_EFEGp_0___rho_1_^0 FV_var_e_EFEGp_0___rho_1_^0_1 ) ( * UndefCntr1_var_e_EFEGp_0_x^0 FV_var_e_EFEGp_0_x^0_1 ) ) 0 ) ) ( and ( and ( = UndefCntr0_undef6076 UndefCntr1_undef6076 ) ( = UndefCntr0_CT UndefCntr1_CT ) ) ( or ( and ( = ( + ( - 3 ) FV_undef6076_0 ) 0 ) ( <= ( + UndefCntr0_CT ( * UndefCntr0_undef2529 FV_undef2529_0 ) ( * UndefCntr0_undef6067 FV_undef6067_0 ) ( * UndefCntr0_undef6076 FV_undef6076_0 ) ( * UndefCntr0_copied2^0 FV_copied2^0_0 ) ( * UndefCntr0_var_e_EFEGp_0___rho_1_^0 FV_var_e_EFEGp_0___rho_1_^0_0 ) ( * UndefCntr0_var_e_EFEGp_0_x^0 FV_var_e_EFEGp_0_x^0_0 ) ) 0 ) ) ( and ( = ( + ( - 3 ) FV_undef6076_1 ) 0 ) ( <= ( + UndefCntr1_CT ( * UndefCntr1_undef6067 FV_undef6067_1 ) ( * UndefCntr1_undef2529 FV_undef2529_1 ) ( * UndefCntr1_undef6076 FV_undef6076_1 ) ( * UndefCntr1_copied2^0 FV_copied2^0_1 ) ( * UndefCntr1_var_e_EFEGp_0___rho_1_^0 FV_var_e_EFEGp_0___rho_1_^0_1 ) ( * UndefCntr1_var_e_EFEGp_0_x^0 FV_var_e_EFEGp_0_x^0_1 ) ) 0 ) ) ) ) ) ) ))
(assert ( and ( >= lam11n0 0 ) ( >= lam11n1 0 ) ( >= lam11n2 0 ) ( >= lam11n3 0 ) ( >= lam11n4 0 ) ( > ( + ( * 1 lam11n1 ) ( * Nl20CT1 lam11n2 ) ( * Nl20CT2 lam11n3 ) ( * Nl20CT3 lam11n4 ) ( - 1 ) ) 0 ) ( = ( + ( * 1 lam11n0 ) ( * Nl20copied2^01 lam11n2 ) ( * Nl20copied2^02 lam11n3 ) ( * Nl20copied2^03 lam11n4 ) ) 0 ) ( = ( + ( * Nl20var_e_EFEGp_0___rho_1_^01 lam11n2 ) ( * Nl20var_e_EFEGp_0___rho_1_^02 lam11n3 ) ( * Nl20var_e_EFEGp_0___rho_1_^03 lam11n4 ) ) 0 ) ( = ( + ( * ( - 1 ) lam11n1 ) ( * Nl20var_e_EFEGp_0_x^01 lam11n2 ) ( * Nl20var_e_EFEGp_0_x^02 lam11n3 ) ( * Nl20var_e_EFEGp_0_x^03 lam11n4 ) ) 0 ) ))
(assert ( and ( and ( <= ( + Nl20CT1 ( * Nl20copied2^01 FV_copied2^0_3 ) ( * Nl20var_e_EFEGp_0___rho_1_^01 FV_var_e_EFEGp_0___rho_1_^0_3 ) ( * Nl20var_e_EFEGp_0_x^01 FV_var_e_EFEGp_0_x^0_3 ) ) 0 ) ( <= ( + Nl20CT2 ( * Nl20copied2^02 FV_copied2^0_3 ) ( * Nl20var_e_EFEGp_0___rho_1_^02 FV_var_e_EFEGp_0___rho_1_^0_3 ) ( * Nl20var_e_EFEGp_0_x^02 FV_var_e_EFEGp_0_x^0_3 ) ) 0 ) ( <= ( + Nl20CT3 ( * Nl20copied2^03 FV_copied2^0_3 ) ( * Nl20var_e_EFEGp_0___rho_1_^03 FV_var_e_EFEGp_0___rho_1_^0_3 ) ( * Nl20var_e_EFEGp_0_x^03 FV_var_e_EFEGp_0_x^0_3 ) ) 0 ) ) ( or ( and ( <= FV_copied2^0_3 0 ) ( <= FV_var_e_EFEGp_0_x^0_3 0 ) ( <= FV_undef2529_3 0 ) ( <= FV_undef6067_3 0 ) ( = ( + ( - 3 ) FV_undef6076_3 ) 0 ) ) ( and ( <= FV_copied2^0_3 0 ) ( <= FV_var_e_EFEGp_0_x^0_3 0 ) ( <= FV_undef2529_3 0 ) ( <= ( + 1 ( * ( - 1 ) FV_undef6067_3 ) ) 0 ) ( = ( + ( - 3 ) FV_undef6076_3 ) 0 ) ) ) ))
(check-sat)
(exit)
